c [0, 0, 0, 0, 1, 1, 0]
c [0, 0, 0, 1, 0, 1, 0]
c [0, 0, 0, 1, 0, 0, 1]
c [0, 1, 1, 0, 1, 1, 0]
c [1, 0, 0, 1, 0, 0, 1]
c [1, 1, 0, 1, 0, 0, 1]
c [0, 0, 1, 0, 1, 1, 0]
p cnf 7 32
1 2 0
1 3 0
4 5 0
4 3 0
6 5 0
6 7 0
5 2 0
5 3 0
2 7 0
3 7 0
1 4 6 5 2 3 7 0
-1 -4 -6 -5 -2 0
-1 -4 -6 -5 -3 0
-1 -4 -6 -5 -7 0
-1 -4 -6 -2 -3 0
-1 -4 -6 -2 -7 0
-1 -4 -6 -3 -7 0
-1 -4 -5 -2 -3 0
-1 -4 -5 -2 -7 0
-1 -4 -5 -3 -7 0
-1 -4 -2 -3 -7 0
-1 -6 -5 -2 -3 0
-1 -6 -5 -2 -7 0
-1 -6 -5 -3 -7 0
-1 -6 -2 -3 -7 0
-1 -5 -2 -3 -7 0
-4 -6 -5 -2 -3 0
-4 -6 -5 -2 -7 0
-4 -6 -5 -3 -7 0
-4 -6 -2 -3 -7 0
-4 -5 -2 -3 -7 0
-6 -5 -2 -3 -7 0